 Node            Displacements                Applied/reaction forces
number     1-direction     2-direction      1-direction     2-direction
     1     0.000052565    -0.000643783      0.000000000    -0.000000000
     2    -0.000043196    -0.000643967     -0.000000000    -0.000000000
     3     0.000052155    -0.000528503     -0.000000000     0.000000000
     4    -0.000043262    -0.000529710      0.000000000     0.000000000
     5    -0.000138958    -0.000644597      0.000000000 -1950.000000000
     6    -0.000138256    -0.000529313      0.000000000 -3899.999999999
     7     0.000049932    -0.000413562     -0.000000000     0.000000000
     8    -0.000042905    -0.000413277     -0.000000000     0.000000000
     9    -0.000135735    -0.000414380     -0.000000000 -3900.000000000
    10     0.000044072    -0.000302209      0.000000000    -0.000000000
    11    -0.000042728    -0.000300269      0.000000000    -0.000000000
    12    -0.000129621    -0.000303055     -0.000000000 -3900.000000000
    13     0.000032775    -0.000200151     -0.000000000    -0.000000000
    14    -0.000042584    -0.000197571     -0.000000000    -0.000000000
    15    -0.000118066    -0.000200562     -0.000000000 -3900.000000000
    16     0.000014107    -0.000113790      0.000000000     0.000000000
    17    -0.000033842    -0.000110014     -0.000000000     0.000000000
    18    -0.000099587    -0.000115378     -0.000000000 -3900.000000000
    19     0.000004736    -0.000059029      0.000000000    -0.000000000
    20    -0.000019839    -0.000035906      0.000000000     0.000000000
    21    -0.000077809    -0.000057726     -0.000000000 -3900.000000000
    22     0.000005276    -0.000023560      0.000000000     0.000000000
    23     0.000002695    -0.000011026     -0.000000000    -0.000000000
    24    -0.000058130    -0.000021699      0.000000000 -3900.000000000
    25    -0.000027681    -0.000012021     -0.000000000     0.000000000
    26    -0.000003251    -0.000000629     -0.000000000     0.000000000
    27     0.000005413     0.000000000      0.000000000 37930.438760807
    28     0.000007917     0.000000000      0.000000000 31193.824023860
    29     0.000005965     0.000000000     -0.000000000  2592.981357829
    30    -0.000044382    -0.000004784      0.000000000 -3900.000000000
    31    -0.000029628    -0.000001011     -0.000000000     0.000000000
    32    -0.000015779     0.000001914     -0.000000000    -0.000000000
    33     0.000002728     0.000000000      0.000000000 ***************
    34    -0.000014282     0.000006611      0.000000000     0.000000000
    35    -0.000002475     0.000003547      0.000000000     0.000000000
    36    -0.000038404     0.000005285     -0.000000000 -3900.000000000
    37    -0.000027959     0.000007059      0.000000000    -0.000000000
    38     0.000000000     0.000000000      0.000000001 ***************
    39    -0.000004171     0.000008702     -0.000000000     0.000000000
    40    -0.000014014     0.000014748     -0.000000000    -0.000000000
    41    -0.000026331     0.000017151      0.000000000    -0.000000000
    42    -0.000037283     0.000016738      0.000000000 -1950.000000000
                                            ___________     ___________
                              Summation    -0.000000000    -0.000000002

Element                    Element strain                                   Principal stresses
number      1-direction     2-direction     3-direction      sigma 1         sigma 2        direction
      1     0.000049305    -0.000055764    -0.000323923  *************** ***************     0.628569160
      2     0.000051253     0.000000007    -0.000342231  *************** ***************     0.711080007
      3    -0.000089681     0.000066501    -0.000335433  *************** ***************     1.003278971
      4     0.000285975    -0.000125224    -0.000257003  *************** ***************     0.279302984
      5     0.000143324    -0.000064878    -0.000196152  *************** ***************     0.377802134
      6    -0.000055257    -0.000119189    -0.000140741  *************** ***************     0.572204675
      7     0.000351023    -0.000202079    -0.000185353  *************** ***************     0.161677052
      8     0.000289933    -0.000133741     0.000078997  *************** ***************    -0.092170059
      9    -0.000284483    -0.000188674     0.000518927  *************** ***************    -0.876684636
     10    -0.000331853    -0.000063414     0.000352644  *************** ***************    -1.110719402
     11     0.000291948    -0.000110749     0.000228170  *************** ***************    -0.257751339
     12    -0.000325103     0.000084650     0.000228899  *************** ***************    -1.316075054
     13     0.000194371    -0.000078120     0.000180322  *************** ***************    -0.292297070
     14    -0.000187008     0.000053107     0.000175049  *************** ***************    -1.255826902
     15     0.000104271    -0.000054050     0.000125970  *************** ***************    -0.336043981
     16    -0.000094281     0.000020768     0.000127955  *************** ***************    -1.151566466
     17     0.000044266    -0.000036486     0.000075985  *************** ***************    -0.377496435
     18    -0.000034406     0.000003865     0.000075936  *************** ***************    -1.018820347
     19    -0.000004436    -0.000005086     0.000025208  *************** ***************    -0.772508870
     20     0.000014200    -0.000027417     0.000025178  *************** ***************    -0.272038390
     21    -0.000088861     0.000061560    -0.000158058  *************** ***************     1.165721424
     22     0.000010712    -0.000497043     0.000259217  *************** ***************    -0.236012103
     23    -0.000119244    -0.000101762    -0.000040171  *************** ***************     0.990628781
     24     0.000032158    -0.000021745    -0.000066906  *************** ***************     0.446310395
     25    -0.000013206     0.000062756    -0.000180290  *************** ***************     0.984779718
     26    -0.000060811     0.000172413    -0.000158129  *************** ***************     1.272888912
     27    -0.000089963     0.000242497    -0.000080422  *************** ***************     1.452126149
