 Node            Displacements                Applied/reaction forces
number     1-direction     2-direction      1-direction     2-direction
     1    -0.000044452    -0.000685051     -0.000000001     0.000000007
     2    -0.000146026    -0.000685673     -0.000000015 ***************
     3     0.000057121    -0.000684861     -0.000000007    -0.000000022
     4    -0.000145542    -0.000583793      0.000000007 ***************
     5     0.000056881    -0.000582981     -0.000000004    -0.000000004
     6    -0.000044330    -0.000582831      0.000000001     0.000000048
     7    -0.000143970    -0.000481842      0.000000005 ***************
     8    -0.000044209    -0.000479867     -0.000000008     0.000000022
     9     0.000055553    -0.000481029      0.000000011     0.000000000
    10    -0.000140226    -0.000381457      0.000000005 ***************
    11    -0.000044079    -0.000378965      0.000000002     0.000000030
    12     0.000052050    -0.000380640     -0.000000007     0.000000004
    13    -0.000133229    -0.000285327     -0.000000001 ***************
    14    -0.000043950    -0.000282215     -0.000000003    -0.000000002
    15     0.000045280    -0.000284539      0.000000005     0.000000002
    16    -0.000121807    -0.000197223      0.000000005 ***************
    17    -0.000043902    -0.000194111      0.000000000    -0.000000004
    18     0.000034224    -0.000196655      0.000000005    -0.000000008
    19    -0.000105228    -0.000122983      0.000000000 ***************
    20    -0.000037537    -0.000117044     -0.000000000    -0.000000016
    21     0.000017548    -0.000120455     -0.000000002    -0.000000001
    22    -0.000085522    -0.000068706     -0.000000001 ***************
    23    -0.000030973    -0.000050531     -0.000000000    -0.000000008
    24     0.000007487    -0.000073655      0.000000002    -0.000000003
    25    -0.000066617    -0.000031828     -0.000000001 ***************
    26    -0.000045441    -0.000029804      0.000000001    -0.000000004
    27     0.000004915    -0.000040638     -0.000000000     0.000000000
    28    -0.000034403    -0.000014736     -0.000000003     0.000000003
    29    -0.000010127    -0.000016621     -0.000000001     0.000000000
    30    -0.000052407    -0.000012830      0.000000000 ***************
    31     0.000006215    -0.000017800      0.000000000     0.000000001
    32     0.000004877    -0.000007294      0.000000000    -0.000000000
    33    -0.000043304    -0.000000813     -0.000000002 ***************
    34    -0.000029188    -0.000000679      0.000000004    -0.000000000
    35    -0.000012255    -0.000000538      0.000000001     0.000000000
    36     0.000000831    -0.000000083      0.000000000    -0.000000000
    37     0.000006206     0.000000000      0.000000000 ***************
    38     0.000008118     0.000000000     -0.000000000 ***************
    39     0.000005572     0.000000000     -0.000000000 ***************
    40    -0.000039170     0.000007836      0.000000002 ***************
    41    -0.000027196     0.000007632      0.000000004    -0.000000001
    42    -0.000013173     0.000006291      0.000000000     0.000000000
    43    -0.000001835     0.000003762     -0.000000000     0.000000000
    44     0.000002666     0.000000000      0.000000000 ***************
    45    -0.000038210     0.000017836     -0.000000001 ***************
    46    -0.000026797     0.000017940     -0.000000001     0.000000000
    47    -0.000014231     0.000015365     -0.000000001    -0.000000000
    48    -0.000004114     0.000009023     -0.000000000     0.000000000
    49     0.000000000     0.000000000     -0.000000025 ***************
                                            ___________     ___________
                              Summation    -0.000000027     0.000000007

Element                    Element strain                                   Principal stresses
number      1-direction     2-direction     3-direction      sigma 1         sigma 2        direction
      1     0.000077880    -0.000132938    -0.000091779  *************** ***************     0.205301544
      2     0.000027687    -0.000061026    -0.000384031  *************** ***************     0.671886167
      3     0.000021436     0.000008149    -0.000373162  *************** ***************     0.767603120
      4    -0.000067825     0.000054071    -0.000315874  *************** ***************     0.969545335
      5    -0.000089147    -0.000103104    -0.000180457  *************** ***************     0.746802259
      6     0.000012103    -0.000026536     0.000021159  *************** ***************    -0.250500991
      7     0.000033769    -0.000032920     0.000063542  *************** ***************    -0.380620450
      8    -0.000002354    -0.000005962     0.000021155  74839.360441617 ***************    -0.700934721
      9    -0.000024015     0.000000409     0.000063542  *************** ***************    -0.968881363
     10    -0.000067531     0.000013333     0.000105981  *************** ***************    -1.111284531
     11     0.000077311    -0.000045934     0.000105769  *************** ***************    -0.354618784
     12    -0.000132755     0.000032841     0.000148295  *************** ***************    -1.205627407
     13     0.000142373    -0.000064941     0.000148005  *************** ***************    -0.310003678
     14    -0.000221519     0.000063018     0.000185526  *************** ***************    -1.281897369
     15     0.000229512    -0.000090082     0.000195109  *************** ***************    -0.274047682
     16    -0.000336326     0.000075005     0.000247403  *************** ***************    -1.300047025
     17     0.000323642    -0.000127925     0.000219045  *************** ***************    -0.225819459
     18     0.000368161    -0.000164812     0.000089002  *************** ***************    -0.082732395
     19     0.000510977    -0.000251084    -0.000107179  *************** ***************     0.069863620
     20     0.000453241    -0.000177028    -0.000209890  *************** ***************     0.160732479
     21     0.000258410    -0.000103956    -0.000228965  *************** ***************     0.281759210
     22     0.000118464    -0.000046668    -0.000214380  *************** ***************     0.457222691
     23     0.000027135    -0.000015319    -0.000078976  *************** ***************     0.538774468
     24    -0.000013557     0.000072917    -0.000185414  *************** ***************     1.003595303
     25    -0.000066678     0.000182281    -0.000170815  *************** ***************     1.270122276
     26    -0.000096299     0.000257737    -0.000071751  *************** ***************     1.470816887
     27    -0.000107328     0.000082038    -0.000121244  *************** ***************     1.286046073
     28    -0.000118422    -0.000111615    -0.000046532  *************** ***************     0.858027270
     29    -0.000308489    -0.000106732     0.000388160  *************** ***************    -1.025071446
     30    -0.000160383    -0.000311767     0.000474255  *************** ***************    -0.630907708
     31     0.000019504    -0.000511375     0.000208128  *************** ***************    -0.186814915
     32    -0.000328307    -0.000047060     0.000341955  *************** ***************    -1.129543924
