 Node            Displacements                Applied/reaction forces
number     1-direction     2-direction      1-direction     2-direction
     1     0.000059894    -0.000711645      0.000000002    -0.000000015
     2    -0.000010472    -0.000711699      0.000000002     0.000000030
     3     0.000059802    -0.000632321     -0.000000014     0.000000011
     4    -0.000011595    -0.000630329     -0.000000001    -0.000000004
     5    -0.000080692    -0.000711969     -0.000000011    -0.000000007
     6    -0.000082185    -0.000630754      0.000000009     0.000000082
     7     0.000059254    -0.000552784     -0.000000003     0.000000022
     8    -0.000012347    -0.000548679     -0.000000006    -0.000000019
     9    -0.000082436    -0.000546134     -0.000000003     0.000000030
    10    -0.000151063    -0.000712465      0.000000000 ***************
    11    -0.000150767    -0.000627847     -0.000000008 ***************
    12    -0.000149919    -0.000543017     -0.000000007 ***************
    13     0.000057744    -0.000473540      0.000000007     0.000000022
    14    -0.000012803    -0.000467444      0.000000014     0.000000056
    15    -0.000081505    -0.000461778     -0.000000014    -0.000000004
    16    -0.000147913    -0.000458635      0.000000015 ***************
    17     0.000054794    -0.000395492     -0.000000007    -0.000000004
    18    -0.000013574    -0.000386790     -0.000000006    -0.000000037
    19    -0.000079324    -0.000380303     -0.000000013    -0.000000030
    20    -0.000144161    -0.000375887      0.000000000 ***************
    21     0.000049930    -0.000319910      0.000000007     0.000000017
    22    -0.000015015    -0.000309572      0.000000002    -0.000000045
    23    -0.000076608    -0.000301530     -0.000000000    -0.000000004
    24    -0.000138092    -0.000296386      0.000000004 ***************
    25     0.000042711    -0.000248393     -0.000000006     0.000000017
    26    -0.000017282    -0.000236137      0.000000006    -0.000000006
    27    -0.000073197    -0.000226838      0.000000008    -0.000000006
    28    -0.000129107    -0.000222222      0.000000004 ***************
    29     0.000032700    -0.000182783     -0.000000003    -0.000000007
    30    -0.000020117    -0.000169280     -0.000000003     0.000000005
    31    -0.000067968    -0.000159387     -0.000000008    -0.000000015
    32    -0.000116699    -0.000156199      0.000000007 ***************
    33     0.000018769    -0.000124714      0.000000005    -0.000000002
    34    -0.000019050    -0.000113405      0.000000006    -0.000000019
    35    -0.000059343    -0.000101336     -0.000000002    -0.000000004
    36    -0.000101150    -0.000101589     -0.000000005 ***************
    37     0.000008342    -0.000075745      0.000000001     0.000000000
    38    -0.000016867    -0.000063517     -0.000000002    -0.000000012
    39    -0.000047731    -0.000056473     -0.000000002    -0.000000000
    40    -0.000084161    -0.000060983     -0.000000001 ***************
    41     0.000005460    -0.000041998      0.000000000    -0.000000001
    42    -0.000007834    -0.000025659      0.000000001    -0.000000001
    43    -0.000038275    -0.000028627     -0.000000002    -0.000000002
    44    -0.000068569    -0.000033605     -0.000000001 ***************
    45     0.000006541    -0.000018006     -0.000000000     0.000000000
    46     0.000006003    -0.000009805     -0.000000001    -0.000000001
    47     0.000002410    -0.000003107      0.000000000    -0.000000000
    48    -0.000036129    -0.000013057      0.000000001    -0.000000001
    49    -0.000015279    -0.000005525     -0.000000000     0.000000001
    50    -0.000055842    -0.000015736     -0.000000001 ***************
    51     0.000006302     0.000000000      0.000000000 ***************
    52     0.000008436     0.000000000      0.000000000 ***************
    53     0.000006993     0.000000000     -0.000000000 ***************
    54     0.000004420     0.000000000     -0.000000001 ***************
    55    -0.000008384     0.000002083      0.000000000    -0.000000000
    56     0.000000677     0.000001300     -0.000000001    -0.000000000
    57    -0.000046681    -0.000004764     -0.000000001 ***************
    58    -0.000023377    -0.000001914     -0.000000006     0.000000000
    59    -0.000034785    -0.000003373      0.000000003     0.000000000
    60    -0.000019501     0.000002066     -0.000000001    -0.000000000
    61     0.000002134     0.000000000      0.000000000 ***************
    62    -0.000000938     0.000003741      0.000000000     0.000000000
    63    -0.000008667     0.000006545     -0.000000001     0.000000002
    64    -0.000019249     0.000008492      0.000000001     0.000000001
    65    -0.000041495     0.000002398      0.000000000 ***************
    66    -0.000032403     0.000003281      0.000000002    -0.000000001
    67    -0.000030090     0.000008953      0.000000000    -0.000000000
    68     0.000000000     0.000000000      0.000000063 ***************
    69    -0.000002801     0.000007538      0.000000000     0.000000001
    70    -0.000009880     0.000013531     -0.000000000    -0.000000000
    71    -0.000019724     0.000017170     -0.000000001     0.000000001
    72    -0.000030015     0.000018162      0.000000000    -0.000000000
    73    -0.000039678     0.000009475      0.000000000 ***************
    74    -0.000039164     0.000017852     -0.000000000 ***************
                                            ___________     ___________
                              Summation     0.000000030     0.000000010

Element                    Element strain                                   Principal stresses
number      1-direction     2-direction     3-direction      sigma 1         sigma 2        direction
      1    -0.000083987    -0.000013868    -0.000320617  *************** ***************     0.893053159
      2    -0.000116509    -0.000155876    -0.000031867  *************** ***************     0.340253060
      3     0.000005878    -0.000017077     0.000069512  *************** ***************    -0.625924277
      4     0.000004892    -0.000016472     0.000025723  *************** ***************    -0.438853424
      5     0.000013033    -0.000030452     0.000011348  *************** ***************    -0.127632094
      6     0.000032597    -0.000036399     0.000038325  *************** ***************    -0.253515054
      7    -0.000031820     0.000004578    -0.000373314  *************** ***************     0.833993295
      8     0.000037004    -0.000095514    -0.000304377  *************** ***************     0.580086201
      9     0.000125659    -0.000101811    -0.000377379  *************** ***************     0.514174099
     10     0.000097889    -0.000035805    -0.000382652  *************** ***************     0.617332589
     11     0.000035808     0.000006443    -0.000318079  *************** ***************     0.739368891
     12    -0.000024700     0.000053648    -0.000345016  *************** ***************     0.897046987
     13    -0.000078085     0.000094944    -0.000272530  *************** ***************     1.068240420
     14    -0.000017869    -0.000119533     0.000032810  *************** ***************    -0.156088297
     15     0.000010576    -0.000104274     0.000204130  *************** ***************    -0.529152800
     16     0.000024967    -0.000074178     0.000299999  *************** ***************    -0.625805644
     17     0.000512730    -0.000188084     0.000143013  *************** ***************    -0.100651613
     18     0.000550110    -0.000209308     0.000046151  *************** ***************    -0.030348561
     19     0.000000264     0.000041754    -0.000144819  *************** ***************     0.924907022
     20    -0.000044252     0.000136823    -0.000167564  *************** ***************     1.197464831
     21    -0.000079187     0.000225354    -0.000127722  *************** ***************     1.372241530
     22     0.000011241    -0.000029744     0.000298559  *************** ***************    -0.717186653
     23     0.000011050    -0.000021531     0.000252985  *************** ***************    -0.721358626
     24     0.000010771    -0.000020448     0.000207430  *************** ***************    -0.710708031
     25     0.000009236    -0.000019104     0.000161760  *************** ***************    -0.698679875
     26     0.000007921    -0.000018452     0.000115667  *************** ***************    -0.673310075
     27     0.000071729    -0.000048414     0.000064470  *************** ***************    -0.246252963
     28     0.000130306    -0.000066646     0.000090723  *************** ***************    -0.215831518
     29    -0.000098791     0.000126291    -0.000110438  *************** ***************     1.342724147
     30    -0.000118248    -0.000008766    -0.000097161  *************** ***************     1.207875483
     31    -0.000109950    -0.000201926     0.000007412  *************** ***************    -0.040207171
     32     0.000301890    -0.000119107     0.000145965  *************** ***************    -0.166871775
     33     0.000206975    -0.000090446     0.000117460  *************** ***************    -0.188062614
     34     0.000414073    -0.000156492     0.000166511  *************** ***************    -0.141974504
     35     0.000424136    -0.000172592    -0.000198230  *************** ***************     0.160362526
     36     0.000506294    -0.000203601    -0.000127777  *************** ***************     0.089044010
     37     0.000196650    -0.000079803    -0.000204616  *************** ***************     0.318582156
     38     0.000319825    -0.000125272    -0.000225747  *************** ***************     0.234689782
     39    -0.000097516     0.000281716    -0.000054048  *************** ***************     1.500013377
     40     0.000022722    -0.000022915    -0.000048964  *************** ***************     0.410274559
     41     0.000088499    -0.000040590    -0.000142590  *************** ***************     0.417526152
     42    -0.000410886    -0.000132617     0.000641885  *************** ***************    -0.989930212
     43    -0.000188918    -0.000343928     0.000598390  *************** ***************    -0.658661846
     44     0.000048673    -0.000579049     0.000252494  *************** ***************    -0.191217441
     45    -0.000574597     0.000059224     0.000461324  *************** ***************    -1.256210590
     46    -0.000174010     0.000046563     0.000115315  *************** ***************    -1.329936551
     47    -0.000105321     0.000026507     0.000090340  *************** ***************    -1.270404932
     48    -0.000361542     0.000099236     0.000163014  *************** ***************    -1.400777006
     49    -0.000499535     0.000122210     0.000240476  *************** ***************    -1.386269209
     50    -0.000258714     0.000070608     0.000138162  *************** ***************    -1.372180176
     51    -0.000054299     0.000012117     0.000064795  *************** ***************    -1.184272548
     52    -0.000020115     0.000002100     0.000038803  *************** ***************    -1.045379560
     53    -0.000002874    -0.000002416     0.000011634  *************** ***************    -0.805083463
