 Node            Displacements                Applied/reaction forces
number     1-direction     2-direction      1-direction     2-direction
     1     0.000000000     0.000000000     -0.532277436    -0.133961852
     2     0.000000000     0.000000000     -0.935445128    -0.001302209
     3     0.000000000     0.000000000     -0.532277436     0.135264061
     4     0.099024593     0.030865789      0.000000000    -0.000000000
     5     0.087304094    -0.001289680      0.000000000     0.000000000
     6     0.098591267    -0.030920939      0.000000000     0.000000000
     7     0.196260207     0.031095437      0.000000000     0.000000000
     8     0.195814849     0.000359427     -0.000000000     0.000000000
     9     0.195595702    -0.030283134     -0.000000000     0.000000000
    10     0.296137195     0.030622074      0.500000000     0.000000000
    11     0.296124549     0.000726389      1.000000000    -0.000000000
    12     0.295460152    -0.029202148      0.500000000     0.000000000
                                            ___________     ___________
                              Summation    -0.000000000     0.000000000

Element                    Element strain                                   Principal stresses
number      1-direction     2-direction     3-direction      sigma 1         sigma 2        direction
      1     0.047819979    -0.007653045     0.006087532      0.057749952     0.005518340    -0.063309987
      2     0.047622578    -0.007390845    -0.006396569      0.057599423     0.005559747     0.066759434
      3     0.050139496    -0.015337333    -0.001660216      0.058037427     0.003477897     0.016549924
      4     0.050163503    -0.015459459     0.001732435      0.058028032     0.003441065    -0.017261025
      5     0.050046672    -0.015157924    -0.000141101      0.057972360     0.003528650     0.001409692
      6     0.050043538    -0.015142774     0.000141101      0.057973411     0.003533110    -0.001409780
