 Node                  Displacements                                    Applied/reaction forces
number           W              PSI1           PSI2          1-direction     2-direction    3-direction
     1       0.0000000       0.0000000       0.0000000     -201.9000030    -184.5065907     -24.5554080
     2       1.0662503       1.5381915       0.1366917      131.3259406      16.8250002      16.8250002
     3       1.0662503       1.5381915      -0.1366917      100.9500015      16.8250002     -16.8250002
     4       0.0000000       0.0000000       0.0000000     -201.9000030    -184.5065907      24.5554080
     5       2.0004470      -0.0000000      -0.1915321      159.3373102      -0.0000000      33.6500005
     6       2.0004470      -0.0000000       0.1915321      201.9000030      -0.0000000     -33.6500005
     7       1.0662503      -1.5381915       0.1366917      131.3259406     -16.8250002      16.8250002
     8       1.0662503      -1.5381915      -0.1366917      100.9500015     -16.8250002     -16.8250002
     9       0.0000000       0.0000000       0.0000000     -201.9000030     184.5065907     -24.5554080
    10       0.0000000       0.0000000       0.0000000     -201.9000030     184.5065907      24.5554080
                                            ___________     ___________
                              Summation   -27.647569182    45.836754548

Element                    Element strain                                   Principal stresses
number      1-direction       2-direction       3-direction        sigma 1           sigma 2          direction
      1           1.53819          -0.13669           0.00000     12131321.57038     6555342.60863          -0.57080
      2          -1.53819           0.05484           0.00000     -7237266.85190   -12540748.42859           1.00000
      3          -1.53819           0.05484          -0.00000     -7237266.85190   -12540748.42859           1.00000
      4           1.53819          -0.13669          -0.00000     12131321.57038     6555342.60863          -0.57080
