 Node                  Displacements                                    Applied/reaction forces
number           W              PSI1           PSI2          1-direction     2-direction    3-direction
     1       0.0000000       0.0000000       0.0000000       -1.5282019     -19.5664952      -2.4868175
     2       0.1635307       0.3352701       0.0819486       -0.0000000       0.0000000      -0.0000000
     3       0.1918832       0.3579980      -0.0233356       -0.0000000      -0.0000000       0.0000000
     4       0.0000000       0.0000000       0.0000000       -7.2495587     -21.8750002       3.4863762
     5       0.6481602       0.6034004       0.0435846        0.0000000      -0.0000000       0.0000000
     6       0.6732170       0.5876588       0.0068093       -0.0000000      -0.0000000       0.0000000
     7       1.3205648       0.7222309       0.0203064        3.1250000       0.5208333       0.5208333
     8       1.3306633       0.7077071      -0.0002237        3.1250000       0.5208333      -0.5208333
     9       2.0589012       0.7445863      -0.0001114        3.1250000      -0.5208333       0.5208333
    10       2.0545187       0.7301054      -0.0085964        3.1250000      -0.5208333      -0.5208333
                                            ___________     ___________
                              Summation   -18.598352941   -18.121344360

Element                    Element strain                                   Principal stresses
number      1-direction       2-direction       3-direction        sigma 1           sigma 2          direction
      1       0.346634059      -0.052642092       0.072739644  2889144.362377865 1030748.534649172      -0.570795764
      2       0.248895509      -0.071029765      -0.012566881  1672607.061680191  698936.192632913      -0.570795371
      3       0.119439441      -0.028652720      -0.029544805   744297.087051760  466192.529835951      -0.570794667
      4       0.022376881      -0.014507524      -0.029026067    96638.379267491    8286.382393837       0.999998378
