 Node                  Displacements                                    Applied/reaction forces
number           W              PSI1           PSI2          1-direction     2-direction    3-direction
     1       0.0000000       0.0000000       0.0000000        0.1345365       0.0625177       0.0624779
     2      -0.0000370       0.0003390       0.0008006        0.0999630       0.1003390       0.1008006
     3       0.0002429      -0.0000012      -0.0000010        0.1002429       0.0999988       0.0999990
     4      -0.0000368       0.0008001       0.0003390        0.0999632       0.1008001       0.1003390
     5       0.0000000       0.0000000       0.0000000       -0.1453592       0.0416024      -0.0237045
     6       0.0003511       0.0003649       0.0003390        0.1003511       0.1003649       0.1003390
     7       0.0000000       0.0000000       0.0000000       -0.5007211       0.1278436       0.1278357
     8       0.0003511       0.0003390       0.0003647        0.1003511       0.1003390       0.1003647
     9       0.0000000       0.0000000       0.0000000       -0.1454862      -0.0237235       0.0416533
                                            ___________     ___________
                              Summation     0.111663973     1.110710811

Element                    Element strain                                   Principal stresses
number      1-direction       2-direction       3-direction        sigma 1           sigma 2          direction
      1      -0.000231137      -0.000231319       0.000806420    -3082.313487513   -3083.771606980      -0.001737477
      2       0.000013502      -0.000231319       0.000502534     -472.833347191   -2431.401566399      -0.000000806
      3       0.000013502       0.000013370      -0.001812266      179.671268805     178.616743895       0.005399125
      4      -0.000231137       0.000013370       0.000503312     -473.753261544   -2429.808906658      -1.570795518
