 Node                  Displacements                                    Applied/reaction forces
number           W              PSI1           PSI2          1-direction     2-direction    3-direction
     1       0.0000000       0.0000000       0.0000000       -0.0000000      -0.0000000       0.0000000
     2       0.0000000      -0.0000000      -0.0000000        0.0000000      -0.0000000      -0.0000000
     3      -0.0000000      -0.0000000      -0.0000000       -0.0000000      -0.0000000      -0.0000000
     4       0.0000000       0.0000000       0.0000000        0.0000000       0.0000000      -0.0000000
     5       0.0000000      -0.0000000      -0.0000000        0.0000000      -0.0000000      -0.0000000
     6      -0.0000000       0.0000000      -0.0000000       -0.0000000       0.0000000      -0.0000000
     7      -0.0000000       0.0000000      -0.0000000        0.0000000       0.0000000      -0.0000000
     8      -0.0000000       0.0000000      -0.0000000       -0.0000000       0.0000000      -0.0000000
     9       0.0000000       0.0000000       0.0000000       -0.0000000       0.0000000       0.0000000
    10       0.0000000       0.0000000       0.0000000        0.0000000      -0.0000000      -0.0000000
                                            ___________     ___________
                              Summation     0.000000000     0.000000000

Element                    Element strain                                   Principal stresses
number      theta       1-direction       2-direction       3-direction        sigma 1           sigma 2             direction
      1    0.69549      -0.000000000       0.000000000      -0.000000000        0.000002735      -0.000009055       1.000000012
      2   -0.29029       0.000000000      -0.000000000      -0.000000000        0.000006914      -0.000004017       1.000000047
      3    0.25276       0.000000000      -0.000000000       0.000000000        0.000010903      -0.000008562      -0.570796326
      4   -0.73484      -0.000000000       0.000000000       0.000000000       -0.000000876      -0.000005611      -0.570796157
