 Node                  Displacements                                    Applied/reaction forces
number           W              PSI1           PSI2          1-direction     2-direction    3-direction
     1       0.0000000       0.0000000       0.0000000       -1.7603417      -1.4531754      -0.8107843
     2       0.0133448       0.0223064       0.0033032        1.0000000      -0.0000000       0.1666667
     3       0.0162279       0.0202429       0.0031613        1.0000000       0.0000000      -0.1666667
     4       0.0000000       0.0000000       0.0000000       -2.1497565      -2.0926667       1.0254438
     5       0.0289453       0.0010141      -0.0153063        1.0000000      -0.0000000       0.1666667
     6       0.0249537      -0.0068910       0.0064705        1.0000000      -0.0000000      -0.1666667
     7       0.0141195      -0.0216732      -0.0013653        1.0000000      -0.0000000       0.1666667
     8       0.0091619      -0.0175045      -0.0082574        1.0000000       0.0000000      -0.1666667
     9       0.0000000       0.0000000       0.0000000       -1.4102845       1.4611224      -0.8335591
    10       0.0000000       0.0000000       0.0000000       -0.9163126       0.8842637       0.6849688
                                            ___________     ___________
                              Summation    -2.856705831     1.485623766

Element                    Element strain                                   Principal stresses
number      1-direction       2-direction       3-direction        sigma 1           sigma 2          direction
      1       0.021274631      -0.000070953       0.009331868   210831.211798143   71884.488827025      -0.570796268
      2      -0.024213054       0.010817444      -0.014864208    23071.199780164 -201679.340063944       1.000000060
      3      -0.016650433       0.007442362      -0.001602155   -15455.235886948 -107319.041220129       1.000000121
      4       0.019588857      -0.003446035       0.012934309   193006.939392303   22230.689327632      -0.570796279
