 Node                  Displacements                                    Applied/reaction forces
number           W              PSI1           PSI2          1-direction     2-direction    3-direction
     1       0.0000000       0.0000000       0.0000000        0.0000000      -0.0000000       0.0000000
     2      -0.0000000      -0.0000000       0.0000000       -0.0000000      -0.0000000       0.0000000
     3       0.0000000      -0.0000000       0.0000000        0.0000000      -0.0000000       0.0000000
     4       0.0000000       0.0000000      -0.0000000       -0.0000000       0.0000000      -0.0000000
     5       0.0000000       0.0000000       0.0000000       -0.0000000      -0.0000000      -0.0000000
     6       0.0000000      -0.0000000      -0.0000000       -0.0000000      -0.0000000      -0.0000000
     7       0.0000000       0.0000000       0.0000000        0.0000000      -0.0000000      -0.0000000
     8      -0.0000000       0.0000000      -0.0000000       -0.0000000      -0.0000000      -0.0000000
     9       0.0000000       0.0000000       0.0000000       -0.0000000       0.0000000       0.0000000
                                            ___________     ___________
                              Summation     0.000000000    -0.000000000

Element                    Element strain                                   Principal stresses
number      theta       1-direction       2-direction       3-direction        sigma 1           sigma 2             direction
      1    2.74893      -0.000000000      -0.000000000       0.000000000       -0.000001213      -0.000001524      -0.000001130
      2    2.55271      -0.000000000      -0.000000000      -0.000000000       -0.000000926      -0.000001420       0.000000681
      3    2.96192      -0.000000000      -0.000000000       0.000000000       -0.000001066      -0.000001681      -0.000000709
      4    2.73976      -0.000000000      -0.000000000      -0.000000000       -0.000001177      -0.000001677       0.000000904
