 Node                  Displacements                                    Applied/reaction forces
number           W              PSI1           PSI2          1-direction     2-direction    3-direction
     1       0.0000000       0.0000000       0.0000000       -1.3826495      -1.1991634      -0.1292977
     2       0.0066086       0.0094301       0.0016441        1.0000000       0.0000000       0.1666667
     3       0.0068876       0.0090768      -0.0009859        1.0000000      -0.0000000      -0.1666667
     4       0.0000000       0.0000000       0.0000000       -1.5188914      -1.2432432       0.1481890
     5       0.0125735      -0.0000000      -0.0021717        1.0000000       0.0000000       0.1666667
     6       0.0121024      -0.0000000       0.0010857        1.0000000       0.0000000      -0.1666667
     7       0.0066086      -0.0094301       0.0016441        1.0000000       0.0000000       0.1666667
     8       0.0068876      -0.0090768      -0.0009859        1.0000000       0.0000000      -0.1666667
     9       0.0000000       0.0000000       0.0000000       -1.3826495       1.1991634      -0.1292977
    10       0.0000000       0.0000000       0.0000000       -1.5188914       1.2432432       0.1481890
                                            ___________     ___________
                              Summation     0.142772391     0.091928677

Element                    Element strain                                   Principal stresses
number      1-direction       2-direction       3-direction        sigma 1           sigma 2          direction
      1       0.009253478      -0.001315007       0.000963364    74019.245233610   31827.035901050      -0.570795641
      2      -0.009253478       0.000313697      -0.001951313   -36575.846904789  -82621.231971849       1.000000538
      3      -0.009253478       0.000313697       0.001951313   -50770.436605373  -68426.642271266       1.000001692
      4       0.009253478      -0.001315007      -0.000963364    67011.366614941   38834.914519719      -0.570795211
